15106,17344,5486,20316,14894,1796,16908,15463,22213,10503,19254,4563,18056,25751,24866,11945,10984,9744,23417,7969,25024,18258,7081,15297,9577,3352,9851,25208,3124,3337,2548,9542,20427,10096,25096,23682,19577,9236,19487,19723,19697,12543,6437,5058,16464,24295,21462,21520,14357,11855,18779,24842,2849,17193,10433,8527,14066,19458,26004,5047,1577,9918,19583,19694,15788,24942,2903,13030,3997,15106